DIMENSION: 22
EDGE_WEIGHT_TYPE: EXPLICIT
EDGE_WEIGHT_FORMAT: FULL_MATRIX
EDGE_WEIGHT_SECTION:
32767 6 32767 32767 32767 32767 32767 53 32767 32767 32767 32767 75 32767 32767 32767 74 32767 32767 61 88 96 
6 32767 32767 32767 32767 32767 19 24 89 32767 32767 56 32767 32767 32767 32767 32767 32767 32767 32767 30 32767 
32767 32767 32767 91 32767 21 90 32767 32767 32767 32767 54 52 32767 32767 32767 32767 4 32767 32767 25 27 
32767 32767 91 32767 62 1 32767 32767 32767 32767 12 32767 32767 32767 72 32767 28 55 32767 32767 78 30 
32767 32767 32767 62 32767 32767 32767 87 32767 32767 92 77 60 32767 32767 32767 32767 6 32767 26 32767 32767 
32767 32767 21 1 32767 32767 32767 32767 32767 32767 32767 32767 32767 32767 36 100 82 32767 32767 32767 32767 32767 
32767 19 90 32767 32767 32767 32767 32767 65 32767 32767 32767 19 32767 32767 32767 99 29 32767 32767 64 32767 
53 24 32767 32767 87 32767 32767 32767 32767 85 32767 18 83 32767 32767 46 32767 66 32767 32767 32767 32767 
32767 89 32767 32767 32767 32767 65 32767 32767 32767 84 32767 32767 93 40 32767 32767 32767 32767 32767 72 32767 
32767 32767 32767 32767 32767 32767 32767 85 32767 32767 18 32767 43 32767 32767 32767 12 52 9 32767 44 43 
32767 32767 32767 12 92 32767 32767 32767 84 18 32767 22 32767 50 32767 32767 32767 32767 32767 22 32767 32767 
32767 56 54 32767 77 32767 32767 18 32767 32767 22 32767 32767 32767 2 32767 32767 32767 69 32767 77 29 
75 32767 52 32767 60 32767 19 83 32767 43 32767 32767 32767 32767 23 8 77 9 86 90 40 32767 
32767 32767 32767 32767 32767 32767 32767 32767 93 32767 50 32767 32767 32767 60 32767 32767 91 49 32767 39 32767 
32767 32767 32767 72 32767 36 32767 32767 40 32767 32767 2 23 60 32767 95 99 32767 32767 40 32767 32767 
32767 32767 32767 32767 32767 100 32767 46 32767 32767 32767 32767 8 32767 95 32767 32767 32767 32767 32767 32767 32767 
74 32767 32767 28 32767 82 99 32767 32767 12 32767 32767 77 32767 99 32767 32767 32767 25 20 32767 32767 
32767 32767 4 55 6 32767 29 66 32767 52 32767 32767 9 91 32767 32767 32767 32767 32767 13 32767 32767 
32767 32767 32767 32767 32767 32767 32767 32767 32767 9 32767 69 86 49 32767 32767 25 32767 32767 23 92 32767 
61 32767 32767 32767 26 32767 32767 32767 32767 32767 22 32767 90 32767 40 32767 20 13 23 32767 32767 32767 
88 30 25 78 32767 32767 64 32767 72 44 32767 77 40 39 32767 32767 32767 32767 92 32767 32767 32767 
96 32767 27 30 32767 32767 32767 32767 32767 43 32767 29 32767 32767 32767 32767 32767 32767 32767 32767 32767 32767 
EOF